c *********************************
c * Circuit generated by BenCGen
c *
c * Parity_263
c *
c * Ports with 1 gate(s): 1
c * Ports with 2 gate(s): 263
c * Total gates: 264
c *********************************
p cnf 527 1053
1 266 0
-1 -266 0
1 -265 0
266 -265 0
-1 -266 265 0
1 2 -267 0
-1 2 267 0
1 -2 267 0
-1 -2 -267 0
3 4 -268 0
-3 4 268 0
3 -4 268 0
-3 -4 -268 0
5 6 -269 0
-5 6 269 0
5 -6 269 0
-5 -6 -269 0
7 8 -270 0
-7 8 270 0
7 -8 270 0
-7 -8 -270 0
9 10 -271 0
-9 10 271 0
9 -10 271 0
-9 -10 -271 0
11 12 -272 0
-11 12 272 0
11 -12 272 0
-11 -12 -272 0
13 14 -273 0
-13 14 273 0
13 -14 273 0
-13 -14 -273 0
15 16 -274 0
-15 16 274 0
15 -16 274 0
-15 -16 -274 0
17 18 -275 0
-17 18 275 0
17 -18 275 0
-17 -18 -275 0
19 20 -276 0
-19 20 276 0
19 -20 276 0
-19 -20 -276 0
21 22 -277 0
-21 22 277 0
21 -22 277 0
-21 -22 -277 0
23 24 -278 0
-23 24 278 0
23 -24 278 0
-23 -24 -278 0
25 26 -279 0
-25 26 279 0
25 -26 279 0
-25 -26 -279 0
27 28 -280 0
-27 28 280 0
27 -28 280 0
-27 -28 -280 0
29 30 -281 0
-29 30 281 0
29 -30 281 0
-29 -30 -281 0
31 32 -282 0
-31 32 282 0
31 -32 282 0
-31 -32 -282 0
33 34 -283 0
-33 34 283 0
33 -34 283 0
-33 -34 -283 0
35 36 -284 0
-35 36 284 0
35 -36 284 0
-35 -36 -284 0
37 38 -285 0
-37 38 285 0
37 -38 285 0
-37 -38 -285 0
39 40 -286 0
-39 40 286 0
39 -40 286 0
-39 -40 -286 0
41 42 -287 0
-41 42 287 0
41 -42 287 0
-41 -42 -287 0
43 44 -288 0
-43 44 288 0
43 -44 288 0
-43 -44 -288 0
45 46 -289 0
-45 46 289 0
45 -46 289 0
-45 -46 -289 0
47 48 -290 0
-47 48 290 0
47 -48 290 0
-47 -48 -290 0
49 50 -291 0
-49 50 291 0
49 -50 291 0
-49 -50 -291 0
51 52 -292 0
-51 52 292 0
51 -52 292 0
-51 -52 -292 0
53 54 -293 0
-53 54 293 0
53 -54 293 0
-53 -54 -293 0
55 56 -294 0
-55 56 294 0
55 -56 294 0
-55 -56 -294 0
57 58 -295 0
-57 58 295 0
57 -58 295 0
-57 -58 -295 0
59 60 -296 0
-59 60 296 0
59 -60 296 0
-59 -60 -296 0
61 62 -297 0
-61 62 297 0
61 -62 297 0
-61 -62 -297 0
63 64 -298 0
-63 64 298 0
63 -64 298 0
-63 -64 -298 0
65 66 -299 0
-65 66 299 0
65 -66 299 0
-65 -66 -299 0
67 68 -300 0
-67 68 300 0
67 -68 300 0
-67 -68 -300 0
69 70 -301 0
-69 70 301 0
69 -70 301 0
-69 -70 -301 0
71 72 -302 0
-71 72 302 0
71 -72 302 0
-71 -72 -302 0
73 74 -303 0
-73 74 303 0
73 -74 303 0
-73 -74 -303 0
75 76 -304 0
-75 76 304 0
75 -76 304 0
-75 -76 -304 0
77 78 -305 0
-77 78 305 0
77 -78 305 0
-77 -78 -305 0
79 80 -306 0
-79 80 306 0
79 -80 306 0
-79 -80 -306 0
81 82 -307 0
-81 82 307 0
81 -82 307 0
-81 -82 -307 0
83 84 -308 0
-83 84 308 0
83 -84 308 0
-83 -84 -308 0
85 86 -309 0
-85 86 309 0
85 -86 309 0
-85 -86 -309 0
87 88 -310 0
-87 88 310 0
87 -88 310 0
-87 -88 -310 0
89 90 -311 0
-89 90 311 0
89 -90 311 0
-89 -90 -311 0
91 92 -312 0
-91 92 312 0
91 -92 312 0
-91 -92 -312 0
93 94 -313 0
-93 94 313 0
93 -94 313 0
-93 -94 -313 0
95 96 -314 0
-95 96 314 0
95 -96 314 0
-95 -96 -314 0
97 98 -315 0
-97 98 315 0
97 -98 315 0
-97 -98 -315 0
99 100 -316 0
-99 100 316 0
99 -100 316 0
-99 -100 -316 0
101 102 -317 0
-101 102 317 0
101 -102 317 0
-101 -102 -317 0
103 104 -318 0
-103 104 318 0
103 -104 318 0
-103 -104 -318 0
105 106 -319 0
-105 106 319 0
105 -106 319 0
-105 -106 -319 0
107 108 -320 0
-107 108 320 0
107 -108 320 0
-107 -108 -320 0
109 110 -321 0
-109 110 321 0
109 -110 321 0
-109 -110 -321 0
111 112 -322 0
-111 112 322 0
111 -112 322 0
-111 -112 -322 0
113 114 -323 0
-113 114 323 0
113 -114 323 0
-113 -114 -323 0
115 116 -324 0
-115 116 324 0
115 -116 324 0
-115 -116 -324 0
117 118 -325 0
-117 118 325 0
117 -118 325 0
-117 -118 -325 0
119 120 -326 0
-119 120 326 0
119 -120 326 0
-119 -120 -326 0
121 122 -327 0
-121 122 327 0
121 -122 327 0
-121 -122 -327 0
123 124 -328 0
-123 124 328 0
123 -124 328 0
-123 -124 -328 0
125 126 -329 0
-125 126 329 0
125 -126 329 0
-125 -126 -329 0
127 128 -330 0
-127 128 330 0
127 -128 330 0
-127 -128 -330 0
129 130 -331 0
-129 130 331 0
129 -130 331 0
-129 -130 -331 0
131 132 -332 0
-131 132 332 0
131 -132 332 0
-131 -132 -332 0
133 134 -333 0
-133 134 333 0
133 -134 333 0
-133 -134 -333 0
135 136 -334 0
-135 136 334 0
135 -136 334 0
-135 -136 -334 0
137 138 -335 0
-137 138 335 0
137 -138 335 0
-137 -138 -335 0
139 140 -336 0
-139 140 336 0
139 -140 336 0
-139 -140 -336 0
141 142 -337 0
-141 142 337 0
141 -142 337 0
-141 -142 -337 0
143 144 -338 0
-143 144 338 0
143 -144 338 0
-143 -144 -338 0
145 146 -339 0
-145 146 339 0
145 -146 339 0
-145 -146 -339 0
147 148 -340 0
-147 148 340 0
147 -148 340 0
-147 -148 -340 0
149 150 -341 0
-149 150 341 0
149 -150 341 0
-149 -150 -341 0
151 152 -342 0
-151 152 342 0
151 -152 342 0
-151 -152 -342 0
153 154 -343 0
-153 154 343 0
153 -154 343 0
-153 -154 -343 0
155 156 -344 0
-155 156 344 0
155 -156 344 0
-155 -156 -344 0
157 158 -345 0
-157 158 345 0
157 -158 345 0
-157 -158 -345 0
159 160 -346 0
-159 160 346 0
159 -160 346 0
-159 -160 -346 0
161 162 -347 0
-161 162 347 0
161 -162 347 0
-161 -162 -347 0
163 164 -348 0
-163 164 348 0
163 -164 348 0
-163 -164 -348 0
165 166 -349 0
-165 166 349 0
165 -166 349 0
-165 -166 -349 0
167 168 -350 0
-167 168 350 0
167 -168 350 0
-167 -168 -350 0
169 170 -351 0
-169 170 351 0
169 -170 351 0
-169 -170 -351 0
171 172 -352 0
-171 172 352 0
171 -172 352 0
-171 -172 -352 0
173 174 -353 0
-173 174 353 0
173 -174 353 0
-173 -174 -353 0
175 176 -354 0
-175 176 354 0
175 -176 354 0
-175 -176 -354 0
177 178 -355 0
-177 178 355 0
177 -178 355 0
-177 -178 -355 0
179 180 -356 0
-179 180 356 0
179 -180 356 0
-179 -180 -356 0
181 182 -357 0
-181 182 357 0
181 -182 357 0
-181 -182 -357 0
183 184 -358 0
-183 184 358 0
183 -184 358 0
-183 -184 -358 0
185 186 -359 0
-185 186 359 0
185 -186 359 0
-185 -186 -359 0
187 188 -360 0
-187 188 360 0
187 -188 360 0
-187 -188 -360 0
189 190 -361 0
-189 190 361 0
189 -190 361 0
-189 -190 -361 0
191 192 -362 0
-191 192 362 0
191 -192 362 0
-191 -192 -362 0
193 194 -363 0
-193 194 363 0
193 -194 363 0
-193 -194 -363 0
195 196 -364 0
-195 196 364 0
195 -196 364 0
-195 -196 -364 0
197 198 -365 0
-197 198 365 0
197 -198 365 0
-197 -198 -365 0
199 200 -366 0
-199 200 366 0
199 -200 366 0
-199 -200 -366 0
201 202 -367 0
-201 202 367 0
201 -202 367 0
-201 -202 -367 0
203 204 -368 0
-203 204 368 0
203 -204 368 0
-203 -204 -368 0
205 206 -369 0
-205 206 369 0
205 -206 369 0
-205 -206 -369 0
207 208 -370 0
-207 208 370 0
207 -208 370 0
-207 -208 -370 0
209 210 -371 0
-209 210 371 0
209 -210 371 0
-209 -210 -371 0
211 212 -372 0
-211 212 372 0
211 -212 372 0
-211 -212 -372 0
213 214 -373 0
-213 214 373 0
213 -214 373 0
-213 -214 -373 0
215 216 -374 0
-215 216 374 0
215 -216 374 0
-215 -216 -374 0
217 218 -375 0
-217 218 375 0
217 -218 375 0
-217 -218 -375 0
219 220 -376 0
-219 220 376 0
219 -220 376 0
-219 -220 -376 0
221 222 -377 0
-221 222 377 0
221 -222 377 0
-221 -222 -377 0
223 224 -378 0
-223 224 378 0
223 -224 378 0
-223 -224 -378 0
225 226 -379 0
-225 226 379 0
225 -226 379 0
-225 -226 -379 0
227 228 -380 0
-227 228 380 0
227 -228 380 0
-227 -228 -380 0
229 230 -381 0
-229 230 381 0
229 -230 381 0
-229 -230 -381 0
231 232 -382 0
-231 232 382 0
231 -232 382 0
-231 -232 -382 0
233 234 -383 0
-233 234 383 0
233 -234 383 0
-233 -234 -383 0
235 236 -384 0
-235 236 384 0
235 -236 384 0
-235 -236 -384 0
237 238 -385 0
-237 238 385 0
237 -238 385 0
-237 -238 -385 0
239 240 -386 0
-239 240 386 0
239 -240 386 0
-239 -240 -386 0
241 242 -387 0
-241 242 387 0
241 -242 387 0
-241 -242 -387 0
243 244 -388 0
-243 244 388 0
243 -244 388 0
-243 -244 -388 0
245 246 -389 0
-245 246 389 0
245 -246 389 0
-245 -246 -389 0
247 248 -390 0
-247 248 390 0
247 -248 390 0
-247 -248 -390 0
249 250 -391 0
-249 250 391 0
249 -250 391 0
-249 -250 -391 0
251 252 -392 0
-251 252 392 0
251 -252 392 0
-251 -252 -392 0
253 254 -393 0
-253 254 393 0
253 -254 393 0
-253 -254 -393 0
255 256 -394 0
-255 256 394 0
255 -256 394 0
-255 -256 -394 0
257 258 -395 0
-257 258 395 0
257 -258 395 0
-257 -258 -395 0
259 260 -396 0
-259 260 396 0
259 -260 396 0
-259 -260 -396 0
261 262 -397 0
-261 262 397 0
261 -262 397 0
-261 -262 -397 0
267 268 -398 0
-267 268 398 0
267 -268 398 0
-267 -268 -398 0
269 270 -399 0
-269 270 399 0
269 -270 399 0
-269 -270 -399 0
271 272 -400 0
-271 272 400 0
271 -272 400 0
-271 -272 -400 0
273 274 -401 0
-273 274 401 0
273 -274 401 0
-273 -274 -401 0
275 276 -402 0
-275 276 402 0
275 -276 402 0
-275 -276 -402 0
277 278 -403 0
-277 278 403 0
277 -278 403 0
-277 -278 -403 0
279 280 -404 0
-279 280 404 0
279 -280 404 0
-279 -280 -404 0
281 282 -405 0
-281 282 405 0
281 -282 405 0
-281 -282 -405 0
283 284 -406 0
-283 284 406 0
283 -284 406 0
-283 -284 -406 0
285 286 -407 0
-285 286 407 0
285 -286 407 0
-285 -286 -407 0
287 288 -408 0
-287 288 408 0
287 -288 408 0
-287 -288 -408 0
289 290 -409 0
-289 290 409 0
289 -290 409 0
-289 -290 -409 0
291 292 -410 0
-291 292 410 0
291 -292 410 0
-291 -292 -410 0
293 294 -411 0
-293 294 411 0
293 -294 411 0
-293 -294 -411 0
295 296 -412 0
-295 296 412 0
295 -296 412 0
-295 -296 -412 0
297 298 -413 0
-297 298 413 0
297 -298 413 0
-297 -298 -413 0
299 300 -414 0
-299 300 414 0
299 -300 414 0
-299 -300 -414 0
301 302 -415 0
-301 302 415 0
301 -302 415 0
-301 -302 -415 0
303 304 -416 0
-303 304 416 0
303 -304 416 0
-303 -304 -416 0
305 306 -417 0
-305 306 417 0
305 -306 417 0
-305 -306 -417 0
307 308 -418 0
-307 308 418 0
307 -308 418 0
-307 -308 -418 0
309 310 -419 0
-309 310 419 0
309 -310 419 0
-309 -310 -419 0
311 312 -420 0
-311 312 420 0
311 -312 420 0
-311 -312 -420 0
313 314 -421 0
-313 314 421 0
313 -314 421 0
-313 -314 -421 0
315 316 -422 0
-315 316 422 0
315 -316 422 0
-315 -316 -422 0
317 318 -423 0
-317 318 423 0
317 -318 423 0
-317 -318 -423 0
319 320 -424 0
-319 320 424 0
319 -320 424 0
-319 -320 -424 0
321 322 -425 0
-321 322 425 0
321 -322 425 0
-321 -322 -425 0
323 324 -426 0
-323 324 426 0
323 -324 426 0
-323 -324 -426 0
325 326 -427 0
-325 326 427 0
325 -326 427 0
-325 -326 -427 0
327 328 -428 0
-327 328 428 0
327 -328 428 0
-327 -328 -428 0
329 330 -429 0
-329 330 429 0
329 -330 429 0
-329 -330 -429 0
331 332 -430 0
-331 332 430 0
331 -332 430 0
-331 -332 -430 0
333 334 -431 0
-333 334 431 0
333 -334 431 0
-333 -334 -431 0
335 336 -432 0
-335 336 432 0
335 -336 432 0
-335 -336 -432 0
337 338 -433 0
-337 338 433 0
337 -338 433 0
-337 -338 -433 0
339 340 -434 0
-339 340 434 0
339 -340 434 0
-339 -340 -434 0
341 342 -435 0
-341 342 435 0
341 -342 435 0
-341 -342 -435 0
343 344 -436 0
-343 344 436 0
343 -344 436 0
-343 -344 -436 0
345 346 -437 0
-345 346 437 0
345 -346 437 0
-345 -346 -437 0
347 348 -438 0
-347 348 438 0
347 -348 438 0
-347 -348 -438 0
349 350 -439 0
-349 350 439 0
349 -350 439 0
-349 -350 -439 0
351 352 -440 0
-351 352 440 0
351 -352 440 0
-351 -352 -440 0
353 354 -441 0
-353 354 441 0
353 -354 441 0
-353 -354 -441 0
355 356 -442 0
-355 356 442 0
355 -356 442 0
-355 -356 -442 0
357 358 -443 0
-357 358 443 0
357 -358 443 0
-357 -358 -443 0
359 360 -444 0
-359 360 444 0
359 -360 444 0
-359 -360 -444 0
361 362 -445 0
-361 362 445 0
361 -362 445 0
-361 -362 -445 0
363 364 -446 0
-363 364 446 0
363 -364 446 0
-363 -364 -446 0
365 366 -447 0
-365 366 447 0
365 -366 447 0
-365 -366 -447 0
367 368 -448 0
-367 368 448 0
367 -368 448 0
-367 -368 -448 0
369 370 -449 0
-369 370 449 0
369 -370 449 0
-369 -370 -449 0
371 372 -450 0
-371 372 450 0
371 -372 450 0
-371 -372 -450 0
373 374 -451 0
-373 374 451 0
373 -374 451 0
-373 -374 -451 0
375 376 -452 0
-375 376 452 0
375 -376 452 0
-375 -376 -452 0
377 378 -453 0
-377 378 453 0
377 -378 453 0
-377 -378 -453 0
379 380 -454 0
-379 380 454 0
379 -380 454 0
-379 -380 -454 0
381 382 -455 0
-381 382 455 0
381 -382 455 0
-381 -382 -455 0
383 384 -456 0
-383 384 456 0
383 -384 456 0
-383 -384 -456 0
385 386 -457 0
-385 386 457 0
385 -386 457 0
-385 -386 -457 0
387 388 -458 0
-387 388 458 0
387 -388 458 0
-387 -388 -458 0
389 390 -459 0
-389 390 459 0
389 -390 459 0
-389 -390 -459 0
391 392 -460 0
-391 392 460 0
391 -392 460 0
-391 -392 -460 0
393 394 -461 0
-393 394 461 0
393 -394 461 0
-393 -394 -461 0
395 396 -462 0
-395 396 462 0
395 -396 462 0
-395 -396 -462 0
397 263 -463 0
-397 263 463 0
397 -263 463 0
-397 -263 -463 0
398 399 -464 0
-398 399 464 0
398 -399 464 0
-398 -399 -464 0
400 401 -465 0
-400 401 465 0
400 -401 465 0
-400 -401 -465 0
402 403 -466 0
-402 403 466 0
402 -403 466 0
-402 -403 -466 0
404 405 -467 0
-404 405 467 0
404 -405 467 0
-404 -405 -467 0
406 407 -468 0
-406 407 468 0
406 -407 468 0
-406 -407 -468 0
408 409 -469 0
-408 409 469 0
408 -409 469 0
-408 -409 -469 0
410 411 -470 0
-410 411 470 0
410 -411 470 0
-410 -411 -470 0
412 413 -471 0
-412 413 471 0
412 -413 471 0
-412 -413 -471 0
414 415 -472 0
-414 415 472 0
414 -415 472 0
-414 -415 -472 0
416 417 -473 0
-416 417 473 0
416 -417 473 0
-416 -417 -473 0
418 419 -474 0
-418 419 474 0
418 -419 474 0
-418 -419 -474 0
420 421 -475 0
-420 421 475 0
420 -421 475 0
-420 -421 -475 0
422 423 -476 0
-422 423 476 0
422 -423 476 0
-422 -423 -476 0
424 425 -477 0
-424 425 477 0
424 -425 477 0
-424 -425 -477 0
426 427 -478 0
-426 427 478 0
426 -427 478 0
-426 -427 -478 0
428 429 -479 0
-428 429 479 0
428 -429 479 0
-428 -429 -479 0
430 431 -480 0
-430 431 480 0
430 -431 480 0
-430 -431 -480 0
432 433 -481 0
-432 433 481 0
432 -433 481 0
-432 -433 -481 0
434 435 -482 0
-434 435 482 0
434 -435 482 0
-434 -435 -482 0
436 437 -483 0
-436 437 483 0
436 -437 483 0
-436 -437 -483 0
438 439 -484 0
-438 439 484 0
438 -439 484 0
-438 -439 -484 0
440 441 -485 0
-440 441 485 0
440 -441 485 0
-440 -441 -485 0
442 443 -486 0
-442 443 486 0
442 -443 486 0
-442 -443 -486 0
444 445 -487 0
-444 445 487 0
444 -445 487 0
-444 -445 -487 0
446 447 -488 0
-446 447 488 0
446 -447 488 0
-446 -447 -488 0
448 449 -489 0
-448 449 489 0
448 -449 489 0
-448 -449 -489 0
450 451 -490 0
-450 451 490 0
450 -451 490 0
-450 -451 -490 0
452 453 -491 0
-452 453 491 0
452 -453 491 0
-452 -453 -491 0
454 455 -492 0
-454 455 492 0
454 -455 492 0
-454 -455 -492 0
456 457 -493 0
-456 457 493 0
456 -457 493 0
-456 -457 -493 0
458 459 -494 0
-458 459 494 0
458 -459 494 0
-458 -459 -494 0
460 461 -495 0
-460 461 495 0
460 -461 495 0
-460 -461 -495 0
462 463 -496 0
-462 463 496 0
462 -463 496 0
-462 -463 -496 0
464 465 -497 0
-464 465 497 0
464 -465 497 0
-464 -465 -497 0
466 467 -498 0
-466 467 498 0
466 -467 498 0
-466 -467 -498 0
468 469 -499 0
-468 469 499 0
468 -469 499 0
-468 -469 -499 0
470 471 -500 0
-470 471 500 0
470 -471 500 0
-470 -471 -500 0
472 473 -501 0
-472 473 501 0
472 -473 501 0
-472 -473 -501 0
474 475 -502 0
-474 475 502 0
474 -475 502 0
-474 -475 -502 0
476 477 -503 0
-476 477 503 0
476 -477 503 0
-476 -477 -503 0
478 479 -504 0
-478 479 504 0
478 -479 504 0
-478 -479 -504 0
480 481 -505 0
-480 481 505 0
480 -481 505 0
-480 -481 -505 0
482 483 -506 0
-482 483 506 0
482 -483 506 0
-482 -483 -506 0
484 485 -507 0
-484 485 507 0
484 -485 507 0
-484 -485 -507 0
486 487 -508 0
-486 487 508 0
486 -487 508 0
-486 -487 -508 0
488 489 -509 0
-488 489 509 0
488 -489 509 0
-488 -489 -509 0
490 491 -510 0
-490 491 510 0
490 -491 510 0
-490 -491 -510 0
492 493 -511 0
-492 493 511 0
492 -493 511 0
-492 -493 -511 0
494 495 -512 0
-494 495 512 0
494 -495 512 0
-494 -495 -512 0
497 498 -513 0
-497 498 513 0
497 -498 513 0
-497 -498 -513 0
499 500 -514 0
-499 500 514 0
499 -500 514 0
-499 -500 -514 0
501 502 -515 0
-501 502 515 0
501 -502 515 0
-501 -502 -515 0
503 504 -516 0
-503 504 516 0
503 -504 516 0
-503 -504 -516 0
505 506 -517 0
-505 506 517 0
505 -506 517 0
-505 -506 -517 0
507 508 -518 0
-507 508 518 0
507 -508 518 0
-507 -508 -518 0
509 510 -519 0
-509 510 519 0
509 -510 519 0
-509 -510 -519 0
511 512 -520 0
-511 512 520 0
511 -512 520 0
-511 -512 -520 0
513 514 -521 0
-513 514 521 0
513 -514 521 0
-513 -514 -521 0
515 516 -522 0
-515 516 522 0
515 -516 522 0
-515 -516 -522 0
517 518 -523 0
-517 518 523 0
517 -518 523 0
-517 -518 -523 0
519 520 -524 0
-519 520 524 0
519 -520 524 0
-519 -520 -524 0
521 522 -525 0
-521 522 525 0
521 -522 525 0
-521 -522 -525 0
523 524 -526 0
-523 524 526 0
523 -524 526 0
-523 -524 -526 0
525 526 -527 0
-525 526 527 0
525 -526 527 0
-525 -526 -527 0
527 496 -264 0
-527 496 264 0
527 -496 264 0
-527 -496 -264 0
